certificates/rado_a14_c192_N36.drat
14 -35 12 0
30 -8 -14 12 0
-14 -36 0
-36 0
12 0
-14 35 0
35 0
-11 0
14 0
-10 0
-18 0
-8 0
-16 0
-31 0
15 0
13 0
4 0
-33 0
-17 0
-30 0
-32 0
-19 0
-3 0
-23 0
-2 0
-22 0
-25 0
-5 0
-24 0
-9 0
0
